\ENCODING=ISO-8859-1
\Problem name: 

Minimize
 obj1: x1 + x2 + x3 + x4 + x5 + x6 + x7 + x8 + x9 + x10 + x11 + x12 + x13 + x14
       + x15 + x16 + x17 + x18 + x19 + x20 + x21 + x22 + x23 + x24 + x25 + x26
       + x27 + x28 + x29 + x30 + x31 + x32 + x33 + x34 + x35 + x36 + x37 + x38
       + x39 + x40 + x41 + x42 + x43 + x44 + x45 + x46 + 2 x47 + 2 x48 + 2 x49
       + 2 x50 + 2 x51 + 2 x52 + 2 x53 + 2 x54 + 2 x55 + 2 x56 + 2 x57 + 2 x58
       + 2 x59 + 2 x60 + 2 x61 + 2 x62 + 2 x63 + 2 x64 + 2 x65 + 2 x66 + 2 x67
       + 2 x68 + 2 x69 + 2 x70 + 2 x71 + 2 x72 + 2 x73 + 2 x74 + 2 x75 + 2 x76
       + 2 x77 + 2 x78 + 2 x79 + 2 x80 + 2 x81 + 2 x82 + 2 x83 + 2 x84 + 3 x86
       + 3 x87 + 3 x88 + 3 x89 + 3 x90 + 3 x91 + 3 x92 + 3 x93 + 3 x94 + 3 x95
       + 3 x96 + 3 x97 + 3 x98 + 3 x99 + 3 x100 + 3 x101 + 3 x102 + 3 x103
       + 3 x104 + 3 x105 + 3 x106 + 3 x107 + 3 x108 + 3 x109 + 3 x110 + 3 x111
       + 3 x112 + 3 x113 + 3 x114 + 3 x115 + 3 x116 + 3 x117 + 3 x118 + 3 x119
       + 3 x120 + 3 x121 + 3 x122 + 4 x123 + 4 x124 + 4 x125 + 4 x126 + 4 x127
       + 4 x128 + 4 x129 + 4 x130 + 4 x131 + 4 x132 + 4 x133 + 4 x134 + 4 x135
       + 4 x136 + 4 x137 + 4 x138 + 4 x139 + 4 x140 + 4 x141 + 4 x142 + 4 x143
       + 4 x144 + 4 x145 + 4 x146 + 4 x147 + 4 x148 + 4 x149 + 4 x150 + 4 x151
       + 4 x152 + 4 x153 + 4 x154 + 4 x155 + 4 x156 + 4 x157 + 4 x158 + 4 x159
       + 4 x160 + 5 x161 + 5 x162 + 5 x163 + 5 x164 + 5 x165 + 5 x166 + 5 x167
       + 5 x168 + 5 x169 + 5 x170 + 5 x171 + 5 x172 + 5 x173 + 5 x174 + 5 x175
       + 5 x176 + 5 x177 + 5 x178 + 5 x179 + 5 x180 + 5 x181 + 5 x182 + 5 x183
       + 5 x184 + 5 x185 + 5 x186 + 5 x187 + 5 x188 + 5 x189 + 5 x190 + 5 x191
       + 5 x192 + 5 x193 + 5 x194 + 5 x195 + 5 x196 + 5 x197 + 6 x198 + 6 x199
       + 6 x200 + 6 x201 + 6 x202 + 6 x203 + 6 x204 + 6 x205 + 6 x206 + 6 x207
       + 6 x208 + 6 x209 + 6 x210 + 6 x211 + 6 x212 + 6 x213 + 6 x214 + 6 x215
       + 6 x216 + 6 x217 + 6 x218 + 6 x219 + 6 x220 + 6 x221 + 6 x222 + 6 x223
       + 6 x224 + 6 x225 + 6 x226 + 6 x227 + 6 x228 + 6 x229 + 6 x230 + 6 x231
       + 6 x232 + 6 x233 + 6 x234 + 6 x235 + 6 x236 + 6 x237 + 6 x238 + 6 x239
       + 6 x240 + 6 x241 + 6 x242 + 6 x243 + 6 x244 + 7 x245 + 7 x246 + 7 x247
       + 7 x248 + 7 x249 + 7 x250 + 7 x251 + 7 x253 + 7 x254 + 7 x255 + 7 x256
       + 7 x258 + 7 x259 + 7 x260 + 7 x261 + 7 x262 + 7 x263 + 7 x264 + 7 x265
       + 7 x266 + 7 x267 + 7 x268 + 7 x269 + 7 x270 + 7 x271 + 7 x272 + 7 x275
       + 7 x277 + 7 x278 + 7 x279 + 8 x281 + 8 x282 + 8 x283 + 8 x284 + 8 x285
       + 8 x286 + 8 x287 + 8 x288 + 8 x289 + 8 x290 + 8 x291 + 8 x292 + 8 x293
       + 8 x294 + 8 x295 + 8 x297 + 8 x298 + 8 x300 + 8 x301 + 8 x302 + 8 x303
       + 8 x304 + 8 x305 + 8 x306 + 8 x308 + 8 x309 + 8 x312 + 8 x313 + 8 x320
       + 8 x322 + 8 x323 + 8 x325 + 9 x327 + 9 x329 + 9 x330 + 9 x331 + 9 x332
       + 9 x333 + 9 x336 + 9 x337 + 9 x338 + 9 x340 + 9 x342 + 9 x343 + 9 x344
       + 9 x345 + 9 x350 + 9 x351 + 9 x352 + 10 x356 + 10 x357 + 10 x358
       + 10 x359 + 10 x361 + 10 x362 + 10 x363 + 10 x364 + 10 x368 + 10 x371
       + 10 x372 + 10 x375 + 10 x376 + 10 x378 + 10 x379 + 10 x380 + 10 x383
       + 10 x385 + 10 x391 + 10 x392 + 10 x393 + 10 x401 + 11 x403 + 11 x404
       + 11 x406 + 11 x407 + 11 x409 + 11 x410 + 11 x411 + 11 x412 + 11 x415
       + 11 x417 + 11 x419 + 11 x421 + 11 x422 + 11 x432 + 11 x436 + 11 x438
       + 11 x439 + 12 x444 + 12 x446 + 12 x447 + 12 x452 + 12 x454 + 12 x456
       + 12 x457 + 12 x459 + 12 x460 + 12 x466 + 12 x471 + 12 x475 + 12 x478
       + 13 x483 + 13 x490 + 13 x491 + 13 x497 + 13 x499 + 13 x500 + 13 x510
       + 14 x526 + 14 x528 + 14 x530 + 14 x536 + 14 x552 + 14 x576 + 15 x577
       + 15 x578 + 15 x580 + 15 x594 + 16 x622 + 16 x623 + 16 x628 + 16 x630
       + 16 x637 + 17 x670 + 3
Subject To
 c1:   x171 + x177 + x301 + x359 + x361 + x392 + x623 >= 1
 c2:   x3 + x50 + x52 + x94 + x146 + x192 + x229 + x237 + x309 + x342 + x457
       >= 1
 c3:   x68 + x333 + x510 + x623 >= 1
 c4:   x13 + x46 + x98 + x102 + x112 + x116 + x171 + x180 + x200 + x241 + x332
       + x446 >= 1
 c5:   x7 + x12 + x64 + x71 + x228 + x293 + x410 >= 1
 c6:   x25 + x97 + x128 + x167 + x207 + x342 + x359 + x362 + x456 >= 1
 c7:   x4 + x51 + x55 + x208 + x220 + x244 + x313 + x337 >= 1
 c8:   x50 + x65 + x86 + x134 + x412 + x439 >= 1
 c9:   x6 + x14 + x57 + x65 + x106 + x109 + x230 + x266 + x283 + x300 + x333
       + x391 + x447 >= 1
 c10:  x3 + x49 + x124 + x162 + x182 + x208 + x218 + x301 >= 1
 c11:  x37 + x144 + x206 + x208 + x264 + x266 + x333 + x630 >= 1
 c12:  x35 + x78 + x98 + x113 + x129 + x130 + x164 + x337 + x359 + x497 + x594
       >= 1
 c13:  x129 + x200 + x235 + x291 + x393 + x421 + x432 + x475 + x577 >= 1
 c14:  x61 + x131 + x149 + x248 + x254 + x300 + x302 + x385 + x460 + x578 >= 1
 c15:  x9 + x16 + x21 + x102 + x114 + x212 + x283 + x297 + x444 >= 1
 c16:  x36 + x43 + x87 + x132 + x185 + x213 + x219 + x298 + x332 + x364 + x577
       >= 1
 c17:  x183 + x211 + x255 + x264 + x287 + x294 + x338 + x385 + x452 >= 1
 c18:  x22 + x133 + x232 + x300 >= 1
 c19:  x10 + x19 + x33 + x73 + x371 + x380 >= 1
 c20:  x5 + x23 + x60 + x95 + x120 + x175 + x201 + x234 + x265 + x327 + x345
       + x407 >= 1
 c21:  x26 + x96 + x151 + x152 + x163 + x173 + x242 + x452 >= 1
 c22:  x68 + x116 + x123 + x239 + x410 + x436 + x578 >= 1
 c23:  x61 + x70 + x102 + x133 + x169 + x180 + x219 + x248 + x253 + x294 + x670
       >= 1
 c24:  x43 + x124 + x132 + x136 + x249 + x330 >= 1
 c25:  x10 + x67 + x89 + x92 + x135 + x138 + x221 + x309 + x332 + x406 + x526
       + x628 >= 1
 c26:  x6 + x235 + x352 + x362 + x623 >= 1
 c27:  x48 + x246 + x281 + x375 + x552 >= 1
 c28:  x30 + x127 + x200 + x291 + x438 >= 1
 c29:  x5 + x46 + x53 + x63 + x153 + x216 + x217 + x225 + x363 + x530 >= 1
 c30:  x21 + x35 + x97 + x126 + x137 + x171 + x172 + x229 + x364 >= 1
 c31:  x40 + x96 + x124 + x247 + x287 + x415 >= 1
 c32:  x3 + x49 + x109 + x186 + x200 + x202 + x247 + x293 + x404 + x459 >= 1
 c33:  x1 + x67 + x90 + x95 + x126 + x154 + x223 + x225 + x287 + x432 >= 1
 c34:  x51 + x63 + x68 + x198 + x308 + x332 + x372 >= 1
 c35:  x60 + x108 + x155 + x162 + x166 + x222 + x275 + x288 + x293 + x376
       + x412 >= 1
 c36:  x47 + x95 + x248 + x266 + x302 >= 1
 c37:  x167 + x174 + x289 + x327 >= 1
 c38:  x17 + x117 + x146 + x147 + x218 + x247 + x329 >= 1
 c39:  x7 + x18 + x86 + x90 + x104 + x113 + x195 + x212 + x222 + x327 + x342
       + x530 >= 1
 c40:  x10 + x30 + x56 + x57 + x59 + x142 + x170 + x219 + x300 + x446 + x497
       >= 1
 c41:  x163 + x212 + x378 + x438 + x499 + x630 >= 1
 c42:  x48 + x161 + x256 + x269 + x350 + x491 >= 1
 c43:  x60 + x123 + x125 + x242 + x277 + x637 >= 1
 c44:  x92 + x94 + x322 + x491 >= 1
 c45:  x16 + x53 + x112 + x163 + x204 + x281 + x403 + x457 + x536 >= 1
 c46:  x8 + x20 + x138 + x162 + x187 + x212 + x222 + x237 + x247 + x283 + x404
       + x412 >= 1
 c47:  x89 + x189 + x228 + x263 + x284 + x351 + x358 + x368 + x378 + x483
       + x500 >= 1
 c48:  x20 + x106 + x141 + x177 + x190 + x213 + x298 >= 1
 c49:  x2 + x51 + x82 + x125 + x162 + x171 + x223 + x256 + x436 + x536 + x622
       >= 1
 c50:  x1 + x11 + x100 + x189 + x200 + x331 + x357 + x417 + x456 + x483 >= 1
 c51:  x37 + x200 + x202 + x209 + x214 + x223 + x242 + x287 >= 1
 c52:  x161 + x201 + x258 + x283 + x285 + x295 + x342 + x456 + x580 >= 1
 c53:  x71 + x120 + x181 + x224 + x250 + x260 + x261 + x456 + x577 >= 1
 c54:  x48 + x50 + x99 + x109 + x168 + x201 + x220 + x269 + x351 + x457 >= 1
 c55:  x27 + x64 + x236 + x278 + x361 + x379 + x419 + x447 >= 1
 c56:  x13 + x17 + x20 + x40 + x127 + x153 + x359 + x530 + x577 >= 1
 c57:  x17 + x49 + x92 + x104 + x237 + x331 + x410 >= 1
 c58:  x5 + x15 + x136 + x173 + x199 + x240 + x623 >= 1
 c59:  x66 + x131 + x216 + x253 + x285 + x290 + x342 >= 1
 c60:  x37 + x88 + x98 + x116 + x126 + x247 + x270 >= 1
 c61:  x52 + x54 + x93 + x180 + x255 + x330 + x343 + x361 + x459 + x491 + x578
       >= 1
 c62:  x20 + x54 + x140 + x148 + x167 + x214 + x254 + x282 + x295 + x376 >= 1
 c64:  x143 + x214 + x272 + x350 + x475 + x499 + x500 >= 1
 c65:  x143 + x156 + x218 + x221 + x223 + x235 + x245 + x248 + x322 + x350 >= 1
 c67:  x9 + x14 + x57 + x77 + x115 + x153 + x166 + x227 + x259 + x336 + x340
       + x368 + x393 + x444 >= 1
 c68:  x6 + x180 + x327 + x401 >= 1
 c69:  x8 + x50 + x54 + x72 + x178 + x216 + x246 + x300 + x404 >= 1
 c70:  x32 + x53 + x59 + x62 + x97 + x165 + x206 + x323 + x490 >= 1
 c71:  x50 + x52 + x101 + x247 + x421 >= 1
 c72:  x2 + x19 + x51 + x90 + x105 + x129 + x152 + x156 + x206 + x258 + x275
       + x294 + x412 >= 1
 c73:  x5 + x33 + x136 + x231 + x333 + x439 >= 1
 c74:  x1 + x10 + x48 + x125 + x127 + x132 + x142 + x160 + x202 + x218 + x283
       >= 1
 c75:  x43 + x98 + x99 + x127 + x135 + x206 + x215 + x231 + x253 + x293 + x406
       + x622 >= 1
 c76:  x28 + x34 + x51 + x55 + x66 + x93 + x182 + x265 + x376 + x406 + x528
       >= 1
 c77:  x64 + x117 + x124 + x173 + x208 + x210 + x246 >= 1
 c78:  x7 + x87 + x90 + x105 + x122 + x141 + x168 + x194 + x215 + x258 + x292
       >= 1
 c79:  x62 + x93 + x107 + x168 + x622 >= 1
 c80:  x50 + x221 + x245 + x260 + x282 + x312 + x345 + x364 >= 1
 c81:  x207 + x343 + x475 + x497 + x552 + x594 >= 1
 c82:  x15 + x100 + x181 + x191 + x208 + x218 + x286 + x380 + x419 >= 1
 c83:  x30 + x109 + x209 + x269 + x290 + x356 + x368 >= 1
 c84:  x12 + x152 + x164 + x243 + x259 + x266 + x281 + x295 + x313 + x459 >= 1
 c85:  x15 + x112 + x130 + x136 + x137 + x174 + x309 + x466 >= 1
 c86:  x9 + x48 + x89 + x223 + x268 + x275 + x338 + x446 >= 1
 c87:  x68 + x113 + x330 + x333 + x342 + x363 + x403 + x536 + x578 >= 1
 c88:  x34 + x39 + x60 + x100 + x106 + x119 + x131 + x170 + x226 + x578 >= 1
 c89:  x5 + x48 >= 1
 c90:  x24 + x32 + x52 + x89 + x99 + x262 + x407 + x444 + x454 + x475 >= 1
 c91:  x63 + x86 + x147 + x179 + x197 + x225 + x333 + x358 + x363 + x577 >= 1
 c92:  x71 + x142 + x163 + x213 + x245 >= 1
 c93:  x47 + x50 + x55 + x58 + x73 + x77 + x119 + x143 + x304 + x392 + x622
       >= 1
 c94:  x4 + x75 + x87 + x207 >= 1
 c95:  x95 + x103 + x144 + x159 + x361 >= 1
 c96:  x75 + x103 + x135 + x172 + x216 + x284 + x578 + x628 >= 1
 c97:  x6 + x8 + x118 + x133 + x244 + x253 + x282 + x362 >= 1
 c98:  x48 + x92 + x160 + x338 + x359 + x444 >= 1
 c99:  x41 + x70 + x160 + x200 + x202 + x221 + x225 + x238 + x265 + x271 + x306
       + x325 >= 1
 c100: x1 + x22 + x47 + x86 + x132 + x224 + x246 + x263 + x270 + x410 + x456
       >= 1
 c101: x25 + x26 + x94 + x127 + x294 >= 1
 c102: x25 + x138 + x195 + x302 + x483 >= 1
 c103: x104 + x166 + x247 + x282 + x286 + x577 + x622 >= 1
 c104: x98 + x188 + x233 + x327 + x340 + x345 + x421 + x436 >= 1
 c105: x9 + x176 + x182 + x285 + x303 + x337 + x358 + x404 + x530 >= 1
 c106: x3 + x47 + x99 + x119 + x177 + x206 + x411 >= 1
 c107: x49 + x137 + x251 + x275 + x303 >= 1
 c108: x9 + x16 + x23 + x81 + x205 + x220 >= 1
 c109: x3 + x35 + x93 + x286 >= 1
 c110: x15 + x90 + x141 + x177 + x179 + x224 + x229 + x304 + x378 + x454 >= 1
 c111: x90 + x138 + x155 + x166 + x198 + x220 + x283 + x290 >= 1
 c112: x7 + x14 + x52 + x103 + x128 + x158 + x258 + x295 + x356 + x528 >= 1
 c113: x17 + x25 + x54 + x171 + x189 + x209 + x622 >= 1
 c114: x64 + x69 + x76 + x79 + x124 + x323 >= 1
 c115: x6 + x59 + x170 + x171 + x203 + x510 + x628 >= 1
 c116: x7 + x69 + x74 + x129 + x153 + x322 >= 1
 c117: x5 + x29 + x122 + x128 + x132 + x139 + x345 + x526 >= 1
 c118: x32 + x34 + x175 + x246 + x258 + x292 + x293 + x407 >= 1
 c119: x121 + x128 + x133 + x282 + x292 + x415 + x457 >= 1
 c120: x15 + x168 + x186 + x230 + x231 + x282 >= 1
 c121: x10 + x76 + x230 + x234 + x241 + x281 + x302 >= 1
 c122: x184 + x226 + x233 + x286 + x305 + x332 + x333 + x368 + x410 + x530 >= 1
 c123: x52 + x58 + x90 + x101 + x163 + x248 + x249 + x344 + x371 >= 1
 c124: x124 + x128 + x150 + x232 + x253 + x258 + x262 + x359 + x637 >= 1
 c125: x17 + x133 + x219 + x232 + x253 + x256 + x288 >= 1
 c126: x35 + x134 + x139 + x185 + x238 + x250 + x267 + x372 + x490 >= 1
 c127: x7 + x12 + x214 + x267 + x297 + x331 + x357 + x530 >= 1
 c128: x3 + x123 + x151 + x220 + x246 + x256 + x403 + x499 + x500 + x594 >= 1
 c129: x53 + x54 + x93 + x104 + x205 + x263 + x281 + x376 >= 1
 c130: x2 + x36 + x57 + x91 + x177 + x193 + x245 + x459 + x526 + x577 >= 1
 c131: x141 + x224 + x272 + x285 + x356 + x380 + x409 + x526 >= 1
 c132: x1 + x7 + x13 + x61 + x97 + x100 + x371 + x436 >= 1
 c133: x13 + x71 + x129 + x136 + x238 + x255 + x265 >= 1
 c134: x49 + x67 + x114 + x183 + x185 + x251 + x286 + x401 + x411 >= 1
 c135: x75 + x215 + x225 + x267 + x302 + x358 + x459 + x490 + x552 >= 1
 c136: x117 + x156 + x165 + x199 + x200 + x407 >= 1
 c137: x178 + x287 + x293 + x327 + x329 + x530 >= 1
 c138: x56 + x83 + x95 + x211 + x219 + x262 + x298 + x332 + x371 >= 1
 c139: x142 + x175 + x204 + x215 + x490 >= 1
 c140: x34 + x67 + x144 + x203 + x209 + x217 + x288 >= 1
 c142: x6 + x8 + x76 + x122 + x228 + x241 + x282 + x293 + x344 >= 1
 c143: x27 + x89 + x221 + x284 + x356 >= 1
 c144: x41 + x44 + x48 + x74 + x90 + x111 + x142 + x147 + x199 + x282 + x329
       + x372 + x536 + x628 >= 1
 c145: x49 + x89 + x92 + x101 + x168 + x198 + x221 + x259 + x403 + x594 >= 1
 c146: x4 + x133 + x142 + x172 + x176 + x201 + x208 + x217 + x219 + x272 + x289
       + x447 >= 1
 c147: x19 + x65 + x75 + x125 + x158 + x167 + x332 >= 1
 c148: x8 + x60 + x166 + x178 + x294 + x300 + x308 + x362 + x372 + x419 >= 1
 c149: x4 + x10 + x52 + x240 >= 1
 c150: x19 + x107 + x139 + x161 + x338 + x368 + x380 + x490 + x580 >= 1
 c151: x88 + x101 + x158 + x403 + x528 >= 1
 c152: x29 + x131 + x135 + x139 + x181 + x205 + x214 + x245 + x265 + x352
       + x375 + x454 >= 1
 c153: x39 + x157 + x250 + x295 + x308 + x415 >= 1
 c154: x10 + x58 + x134 + x164 + x178 + x225 + x229 + x239 + x628 >= 1
 c155: x2 + x91 + x249 + x282 + x290 + x292 + x383 + x594 >= 1
 c156: x52 + x105 + x196 + x208 + x235 + x289 + x332 + x350 + x358 >= 1
 c157: x2 + x26 + x66 + x96 + x124 + x125 + x205 + x255 + x359 + x371 + x444
       >= 1
 c158: x26 + x88 + x91 + x124 + x191 + x364 + x380 >= 1
 c159: x86 + x105 + x146 + x202 + x336 + x356 + x364 + x411 + x447 + x578 >= 1
 c160: x42 + x92 + x139 + x154 + x203 + x362 + x363 + x623 >= 1
 c161: x47 + x107 + x115 + x117 + x124 + x151 + x171 + x174 + x192 + x198
       + x255 + x292 + x298 + x403 + x406 + x622 >= 1
 c162: x103 + x223 + x243 + x325 + x406 + x454 + x457 + x628 + x637 >= 1
 c164: x7 + x45 + x66 + x73 + x103 + x110 + x145 + x264 + x331 >= 1
 c165: x87 + x161 + x228 + x306 + x309 + x337 + x340 + x392 + x404 + x444
       + x447 >= 1
 c166: x3 + x33 + x156 + x165 + x241 + x249 + x309 + x483 >= 1
 c167: x25 + x33 + x188 + x210 + x291 + x297 + x415 + x622 >= 1
 c168: x38 + x91 + x110 + x119 + x167 + x223 + x304 + x415 >= 1
 c169: x53 + x105 + x106 + x137 + x186 + x199 + x206 + x227 + x246 + x313
       + x337 + x352 + x459 >= 1
 c170: x4 + x50 + x162 + x216 + x228 + x459 + x623 >= 1
 c171: x50 + x73 + x91 + x234 + x239 + x269 + x297 + x460 + x478 >= 1
 c172: x7 + x125 + x134 + x205 + x305 + x329 + x350 + x371 >= 1
 c173: x10 + x65 + x93 + x96 + x107 + x149 + x204 + x222 + x233 + x284 + x291
       + x383 + x409 + x411 >= 1
 c174: x133 + x210 + x215 + x221 + x338 + x375 + x452 >= 1
 c175: x27 + x162 + x206 + x209 + x211 + x261 + x288 + x309 + x497 + x536 >= 1
 c176: x3 + x35 + x145 + x193 + x284 + x403 >= 1
 c177: x12 + x161 + x181 + x246 + x404 >= 1
 c178: x104 + x163 + x230 + x232 + x236 + x238 + x279 + x304 + x403 + x580 >= 1
 c179: x29 + x89 + x141 + x254 + x269 + x378 + x510 + x623 >= 1
 c180: x24 + x86 + x220 + x264 + x266 + x303 + x306 + x329 + x447 + x622 >= 1
 c183: x47 + x131 + x140 + x263 >= 1
 c185: x38 + x175 + x177 + x224 + x258 + x286 + x287 + x302 >= 1
 c186: x27 + x66 + x69 + x94 + x99 + x163 + x284 + x336 + x340 + x457 + x490
       >= 1
 c187: x2 + x110 + x161 + x168 + x194 + x198 + x254 + x283 + x345 + x457 + x499
       >= 1
 c188: x52 + x61 + x67 + x80 + x168 + x183 + x186 + x244 + x623 >= 1
 c189: x21 + x59 + x67 + x86 + x146 + x150 + x245 + x246 + x286 + x356 + x478
       + x530 >= 1
 c190: x45 + x77 + x182 + x207 + x210 + x226 + x362 >= 1
 c191: x47 + x139 + x305 + x383 + x438 >= 1
 c192: x11 + x123 + x136 + x152 + x255 + x259 + x350 + x411 + x623 >= 1
 c193: x10 + x16 + x38 + x150 + x199 + x217 + x246 + x255 + x298 + x446 >= 1
 c194: x51 + x68 + x124 + x322 + x358 + x379 + x457 >= 1
 c195: x24 + x47 + x65 + x125 + x173 + x261 + x298 >= 1
 c197: x19 + x26 + x96 + x161 + x251 + x580 >= 1
 c198: x23 + x93 + x103 + x123 + x130 + x164 + x234 + x237 + x300 + x330 + x356
       + x415 + x491 + x526 + x552 >= 1
 c199: x27 + x60 + x89 + x163 + x176 + x253 >= 1
 c200: x16 + x88 + x102 + x190 + x211 + x212 + x262 + x267 + x302 + x345 + x576
       + x577 >= 1
 c201: x65 + x213 + x287 + x295 + x526 >= 1
 c202: x2 + x12 + x13 + x59 + x137 + x178 + x211 + x330 >= 1
 c203: x11 + x74 + x95 + x123 + x157 + x164 + x168 + x196 + x197 + x201 + x215
       + x327 + x622 >= 1
 c204: x15 + x150 + x180 + x193 + x227 + x407 + x497 >= 1
 c205: x126 + x128 + x254 + x329 + x338 + x421 + x475 >= 1
 c206: x18 + x68 + x103 + x127 + x204 + x293 + x320 + x327 >= 1
 c207: x42 + x59 + x80 + x86 + x161 + x164 + x199 + x301 + x356 + x530 >= 1
 c208: x12 + x20 + x66 + x126 + x135 + x137 + x159 >= 1
 c209: x18 + x162 + x214 + x238 + x248 + x411 >= 1
 c210: x2 + x91 + x95 + x138 + x157 + x294 + x300 >= 1
 c212: x53 + x166 + x176 + x212 + x217 + x227 >= 1
 c213: x123 + x358 + x409 >= 1
 c214: x221 + x245 + x285 + x297 + x298 + x385 + x410 + x444 + x446 >= 1
 c215: x21 + x30 + x58 + x74 + x78 + x90 + x110 + x132 + x188 + x305 + x444
       >= 1
 c216: x215 + x272 + x323 + x357 + x421 + x444 + x490 + x552 >= 1
 c217: x155 + x206 + x344 + x352 + x407 + x411 + x412 + x466 >= 1
 c218: x4 + x87 + x115 + x123 + x147 + x222 + x235 + x285 + x380 + x499 >= 1
 c220: x61 + x125 + x139 + x148 + x163 + x208 + x270 + x478 >= 1
 c221: x32 + x61 + x62 + x86 + x89 + x155 + x213 + x254 + x282 + x422 + x444
       + x471 >= 1
 c222: x88 + x117 + x218 + x351 + x368 + x404 >= 1
 c223: x44 + x59 + x69 + x132 + x226 + x265 + x417 + x526 >= 1
 c224: x40 + x47 + x118 + x130 + x162 + x216 + x223 + x224 + x670 >= 1
 c225: x142 + x151 + x165 + x178 + x201 + x249 + x279 + x410 + x439 + x576 >= 1
 c226: x47 + x54 + x136 + x156 + x227 + x283 + x471 + x500 + x628 >= 1
 c227: x289 + x320 + x406 + x478 + x530 + x580 + x628 + x637 + x670  = 1
 c228: x25 + x34 + x130 + x148 + x169 + x281 + x292 + x294 >= 1
 c229: x11 + x101 + x106 + x219 + x267 + x409 >= 1
 c230: x1 + x84 + x108 + x214 + x262 + x287 + x344 + x452 + x578 >= 1
 c231: x1 + x5 + x8 + x24 + x51 + x80 + x91 + x337 + x409 + x422 >= 1
 c232: x74 + x155 + x221 + x305 >= 1
 c233: x1 + x4 + x39 + x199 + x207 + x357 + x359 + x403 + x412 + x454 + x528
       >= 1
 c234: x2 + x33 + x49 + x70 + x87 + x178 + x208 + x245 + x336 + x375 + x454
       >= 1
 c235: x9 + x56 + x140 + x212 + x290 + x332 + x499 + x630 >= 1
 c236: x87 + x126 + x163 + x201 + x260 + x361 >= 1
 c237: x1 + x14 + x39 + x73 + x79 + x249 + x594 >= 1
 c238: x58 + x59 + x61 + x71 + x256 + x288 + x491 + x526 + x670 >= 1
 c239: x53 + x106 + x130 + x135 + x262 + x267 + x288 + x290 + x340 + x444
       + x452 + x500 >= 1
 c240: x27 + x61 + x101 + x170 + x176 + x183 + x210 + x213 + x233 + x393 + x536
       >= 1
 c241: x22 + x184 + x242 + x266 + x332 + x363 + x391 + x403 >= 1
 c242: x69 + x78 + x120 + x128 + x161 + x198 + x250 + x283 + x295 + x361 + x375
       >= 1
 c243: x90 + x134 + x139 + x140 + x161 + x171 + x245 + x333 + x432 >= 1
 c244: x7 + x31 + x32 + x63 + x224 + x254 + x261 >= 1
 c245: x3 + x16 + x19 + x132 + x136 + x142 + x167 + x209 + x284 + x295 + x622
       >= 1
 c246: x59 + x64 + x184 + x210 + x246 + x290 + x308 + x580 >= 1
 c247: x3 + x22 + x24 + x116 + x406 >= 1
 c248: x102 + x139 + x140 + x162 + x203 + x282 + x393 >= 1
 c249: x11 + x51 + x83 + x215 + x289 + x291 >= 1
 c250: x12 + x60 + x69 + x109 + x123 + x183 + x210 + x234 + x281 + x325 + x363
       + x421 >= 1
 c251: x71 + x120 + x166 + x169 + x234 + x305 >= 1
 c252: x47 + x141 + x182 + x233 + x245 + x250 + x270 + x312 + x578 >= 1
 c253: x1 + x164 + x218 + x230 + x271 + x281 + x323 + x333 + x357 >= 1
 c254: x87 + x109 + x113 + x145 + x250 + x271 + x282 + x289 + x303 + x379 >= 1
 c255: x9 + x67 + x154 + x199 + x272 + x292 + x297 + x447 + x471 + x552 + x577
       >= 1
 c256: x97 + x229 + x236 + x277 + x308 + x376 + x407 + x436 + x452 + x536 >= 1
 c257: x64 + x169 + x187 + x207 + x285 + x422 >= 1
 c258: x34 + x99 + x162 + x230 + x281 >= 1
 c259: x31 + x54 + x114 + x125 + x150 + x195 + x293 >= 1
 c260: x49 + x181 + x212 + x302 + x336 + x452 >= 1
 c261: x4 + x8 + x92 + x112 + x126 + x235 + x260 + x460 + x497 >= 1
 c262: x70 + x210 + x265 + x282 + x297 + x630 + x637 >= 1
 c263: x42 + x372 + x392 >= 1
 c264: x11 + x32 + x54 + x88 + x108 + x114 + x207 + x209 + x358 + x415 + x510
       >= 1
 c265: x15 + x47 + x48 + x78 + x173 + x191 + x368 + x412 >= 1
 c266: x68 + x161 + x172 + x313 + x409 >= 1
 c267: x18 + x58 + x126 + x191 + x231 + x271 + x342 + x432 + x456 + x471 >= 1
 c268: x57 + x107 + x161 + x172 + x245 + x284 + x322 + x362 + x483 + x526 >= 1
 c269: x59 + x184 + x304 + x471 + x500 + x622 >= 1
 c270: x29 + x36 + x38 + x61 + x93 + x105 + x144 + x145 + x255 + x281 + x295
       + x331 + x552 >= 1
 c271: x56 + x78 + x158 + x165 + x184 + x203 + x209 + x284 + x291 + x356 + x404
       + x490 >= 1
 c272: x5 + x51 + x58 + x76 + x130 + x188 + x253 + x286 + x329 + x456 >= 1
 c273: x113 + x226 + x287 + x338 + x343 + x356 + x510 >= 1
 c274: x45 + x72 + x102 + x138 + x144 + x170 + x174 + x268 + x331 + x419 >= 1
 c275: x5 + x63 + x64 + x86 + x119 + x147 + x170 + x312 + x357 >= 1
 c276: x63 + x138 + x162 + x165 + x195 + x196 + x580 + x630 >= 1
 c278: x28 + x53 + x97 + x111 + x127 + x207 + x271 + x344 + x417 + x536 >= 1
 c279: x21 + x62 + x126 + x131 + x169 + x530 >= 1
 c281: x5 + x20 + x36 + x126 + x130 + x134 + x167 + x361 >= 1
 c282: x49 + x77 + x127 + x135 + x170 + x204 + x337 + x637 >= 1
 c283: x26 + x88 + x206 + x261 >= 1
 c284: x46 + x205 + x253 + x330 >= 1
 c285: x17 + x130 + x154 + x157 + x175 + x329 + x356 + x466 + x475 + x580
       + x628 + x630 >= 1
 c286: x68 + x88 + x123 + x125 + x167 + x269 + x312 + x362 >= 1
 c287: x6 + x93 + x96 + x149 + x168 + x177 + x232 + x259 + x260 >= 1
 c288: x17 + x63 + x87 + x95 + x213 + x331 + x409 + x528 >= 1
 c289: x127 + x205 + x251 + x270 + x290 + x337 + x342 + x404 + x415 + x483 >= 1
 c290: x67 + x159 + x199 + x210 + x271 + x432 + x439 + x491 >= 1
 c291: x27 + x29 + x89 + x143 + x198 + x211 + x630 >= 1
 c292: x23 + x50 + x81 + x87 + x145 + x194 + x236 + x254 >= 1
 c293: x47 + x55 + x65 + x70 + x87 + x105 + x129 + x131 + x134 + x202 + x204
       + x245 + x260 + x456 >= 1
 c294: x54 + x110 + x114 + x251 + x308 + x383 + x446 >= 1
 c295: x70 + x88 + x96 + x118 + x179 + x201 + x247 + x268 + x368 >= 1
 c296: x30 + x57 + x60 + x98 + x107 + x112 + x144 + x200 + x237 + x285 + x286
       + x308 + x336 + x363 + x580 >= 1
 c297: x18 + x174 + x196 + x305 + x391 + x580 >= 1
 c298: x23 + x28 + x48 + x100 + x127 + x327 + x362 + x378 >= 1
 c299: x19 + x29 + x51 + x53 + x124 + x193 + x249 + x250 + x262 + x287 + x352
       + x383 + x439 >= 1
 c300: x19 + x21 + x25 + x66 + x170 + x188 + x330 + x417 >= 1
 c302: x55 + x380 + x447 >= 1
 c303: x98 + x125 + x168 + x211 + x419 >= 1
 c304: x63 + x72 + x176 + x185 + x216 + x277 + x407 + x491 >= 1
 c305: x57 + x154 + x226 + x270 + x281 + x371 >= 1
 c307: x8 + x31 + x56 + x111 + x165 + x198 + x277 + x278 + x291 >= 1
 c308: x105 + x174 + x230 + x306 + x358 + x444 + x457 + x594 >= 1
 c309: x11 + x41 + x61 + x192 + x219 + x288 + x364 + x383 + x483 + x578 >= 1
 c310: x72 + x112 + x134 + x248 + x329 + x356 + x622 >= 1
 c311: x73 + x84 + x102 + x121 + x186 + x190 >= 1
 c312: x15 + x55 + x90 + x156 + x306 + x577 >= 1
 c313: x143 + x186 + x205 + x211 + x227 + x256 + x281 + x330 + x337 >= 1
 c314: x18 + x39 + x66 + x190 + x264 + x301 + x422 + x630 >= 1
 c315: x53 + x92 + x138 + x145 + x187 + x200 + x211 + x216 + x331 >= 1
 c316: x17 + x72 + x129 + x166 + x172 + x220 + x357 + x412 >= 1
 c317: x40 + x52 + x84 + x169 + x289 >= 1
 c318: x16 + x152 + x225 + x391 >= 1
 c319: x14 + x22 + x115 + x160 + x169 + x199 + x209 + x244 + x331 + x447 + x594
       >= 1
 c320: x100 + x203 + x207 + x263 + x281 + x446 >= 1
 c321: x31 + x55 + x166 + x175 + x185 + x192 + x215 + x251 + x343 + x378 + x454
       + x460 >= 1
 c322: x55 + x77 + x128 + x141 + x143 + x165 + x218 + x278 >= 1
 c323: x145 + x147 + x248 + x364 + x371 + x379 + x401 + x578 >= 1
 c324: x161 + x200 + x203 + x232 + x351 + x363 + x412 + x422 + x460 + x630 >= 1
 c325: x62 + x65 + x104 + x173 + x208 + x411 + x444 >= 1
 c326: x2 + x116 + x126 + x189 + x204 + x248 + x294 + x356 + x364 >= 1
 c327: x6 + x71 + x167 + x207 + x285 + x340 >= 1
 c328: x57 + x96 + x128 + x193 + x208 + x222 + x259 >= 1
 c329: x162 + x227 + x336 + x446 + x483 + x670 >= 1
 c330: x123 + x133 + x194 + x210 + x240 + x331 >= 1
 c331: x63 + x134 + x148 + x239 + x261 + x325 + x359 + x422 + x460 >= 1
 c332: x108 + x126 + x140 + x152 + x185 + x204 + x259 + x304 + x359 + x368
       + x403 + x417 + x491 >= 1
 c333: x56 + x104 + x137 + x165 + x226 + x263 + x272 + x281 + x344 >= 1
 c334: x28 + x52 + x213 + x372 + x411 >= 1
 c335: x1 + x49 + x94 + x128 + x169 + x217 + x231 + x289 + x343 + x670 >= 1
 c336: x13 + x54 + x99 + x125 + x149 + x161 + x446 + x577 >= 1
 c337: x20 + x77 + x81 + x162 + x184 + x209 + x247 + x285 + x330 + x438 >= 1
 c338: x91 + x94 + x127 + x129 + x147 + x183 + x290 + x364 + x404 >= 1
 c339: x222 + x363 + x391 + x446 + x466 + x471 + x526 >= 1
 c340: x1 + x3 + x51 + x89 + x96 + x179 + x197 + x202 + x376 + x411 + x536 >= 1
 c341: x216 + x358 + x375 + x419 + x459 + x536 + x576 + x670 >= 1
 c342: x92 + x313 + x358 >= 1
 c343: x13 + x56 + x106 + x254 + x284 + x357 + x385 + x401 + x422 >= 1
 c344: x81 + x110 + x124 + x140 + x166 + x262 + x284 + x343 + x577 + x578
       + x622 >= 1
 c345: x4 + x82 + x87 + x173 + x447 + x466 + x497 + x578 >= 1
 c346: x33 + x67 + x97 + x151 + x179 + x203 + x291 + x415 >= 1
 c347: x23 + x50 + x94 + x102 + x176 + x179 + x198 + x205 + x406 + x407 >= 1
 c348: x14 + x73 + x200 + x202 + x217 + x242 + x247 + x356 + x456 + x577 >= 1
 c349: x26 + x107 + x263 + x291 + x292 + x362 + x363 + x403 + x409 + x483
       + x623 >= 1
 c350: x4 + x50 + x58 + x66 + x91 + x143 + x146 + x163 + x177 + x203 + x246
       + x249 + x292 + x301 + x412 + x452 + x459 >= 1
 c351: x47 + x204 + x218 + x372 + x421 + x446 + x528 + x578 + x623 >= 1
 c352: x9 + x11 + x88 + x452 >= 1
 c353: x65 + x90 + x146 + x306 + x419 + x510 >= 1
 c354: x60 + x69 + x101 + x153 + x167 + x297 + x309 + x471 >= 1
 c355: x8 + x123 + x126 + x131 + x150 + x198 + x228 + x422 + x499 + x622 >= 1
 c356: x58 + x111 + x149 + x198 + x250 + x327 + x379 + x491 >= 1
 c357: x6 + x14 + x56 + x133 + x206 + x251 + x337 + x417 >= 1
 c358: x55 + x76 + x144 + x202 + x281 + x283 + x333 + x460 + x466 + x490 + x528
       >= 1
 c359: x22 + x47 + x170 + x173 + x201 + x215 + x303 + x375 >= 1
 c360: x12 + x28 + x69 + x75 + x114 + x124 + x129 + x282 + x306 + x320 + x406
       >= 1
 c361: x6 + x22 + x97 + x111 + x167 + x283 + x288 + x409 + x438 >= 1
 c362: x62 + x82 + x145 + x164 + x220 + x225 + x268 + x483 >= 1
 c363: x53 + x62 + x86 + x157 + x163 + x170 + x214 + x229 + x288 + x410 >= 1
 c364: x16 + x28 + x171 + x174 + x199 + x277 + x336 + x357 + x628 >= 1
 c365: x56 + x108 + x116 + x164 + x249 + x289 + x303 >= 1
 c366: x64 + x70 + x113 + x179 + x251 + x289 + x338 + x446 >= 1
 c367: x124 + x132 + x198 + x256 + x417 + x454 + x460 + x528 >= 1
 c368: x205 + x291 + x320 >= 1
 c369: x4 + x30 + x98 + x148 + x268 + x410 + x421 >= 1
 c370: x192 + x260 + x286 + x359 + x385 + x404 + x526 + x622 >= 1
 c371: x36 + x95 + x189 + x229 + x336 + x500 >= 1
 c373: x213 + x327 + x454 + x456 + x497 + x526 + x528 + x623 + x630 >= 1
 c374: x23 + x75 + x175 + x198 + x294 + x301 + x320 + x383 + x637 >= 1
 c375: x14 + x24 + x48 + x86 + x103 + x123 + x137 + x148 + x173 + x180 + x182
       + x194 + x201 + x284 + x343 + x357 + x410 + x447 >= 1
 c376: x55 + x57 + x127 + x214 + x241 + x261 + x286 + x403 + x457 >= 1
 c377: x83 + x117 + x164 + x452 + x454 >= 1
 c378: x35 + x62 + x202 + x239 + x392 >= 1
 c379: x2 + x108 + x118 + x149 + x161 + x181 + x232 + x295 + x327 + x379 + x406
       + x417 + x419 >= 1
 c380: x95 + x214 + x243 + x245 + x361 + x376 + x422 + x623 >= 1
 c381: x31 + x70 + x99 + x104 + x128 + x351 + x459 + x580 >= 1
 c382: x18 + x52 + x169 + x217 + x285 >= 1
 c383: x49 + x91 + x111 + x264 >= 1
 c384: x48 + x49 + x151 + x245 + x248 + x251 + x288 + x338 + x403 + x628 + x670
       >= 1
 c385: x18 + x58 + x164 + x165 + x202 + x222 + x250 + x293 + x371 + x447 + x499
       >= 1
 c386: x13 + x14 + x136 + x263 + x294 + x333 + x404 + x580 >= 1
 c387: x108 + x118 + x120 + x187 + x199 + x201 + x224 + x249 + x287 + x330
       + x594 + x637 >= 1
 c388: x31 + x72 + x204 + x264 + x298 >= 1
 c389: x54 + x91 + x132 + x155 + x247 + x251 + x301 + x379 + x483 >= 1
 c390: x40 + x76 + x149 + x159 + x174 + x211 + x213 + x245 + x312 + x313 + x623
       >= 1
 c391: x20 + x86 + x111 + x115 + x240 + x419 + x491 >= 1
 c392: x11 + x100 + x285 + x297 + x332 + x407 + x409 + x670 >= 1
 c393: x79 + x80 + x180 + x288 + x331 + x409 >= 1
 c394: x88 + x129 + x162 + x191 + x203 + x329 + x330 + x363 + x406 >= 1
 c395: x13 + x169 + x176 + x187 + x206 + x283 + x301 + x376 + x417 + x528
       + x623 >= 1
 c396: x9 + x243 + x268 + x344 + x444 + x577 >= 1
 c397: x42 + x212 + x237 + x303 + x372 + x460 + x490 + x500 >= 1
 c398: x123 + x131 + x217 + x236 + x261 + x298 + x312 + x340 + x362 + x393
       + x436 >= 1
 c399: x38 + x101 + x131 + x212 + x231 + x357 + x403 + x404 + x580 >= 1
 c400: x44 + x53 + x56 + x99 + x135 + x148 + x204 + x219 + x231 + x292 + x378
       + x415 >= 1
Bounds
 0 <= x1 <= 1
 0 <= x2 <= 1
 0 <= x3 <= 1
 0 <= x4 <= 1
 0 <= x5 <= 1
 0 <= x6 <= 1
 0 <= x7 <= 1
 0 <= x8 <= 1
 0 <= x9 <= 1
 0 <= x10 <= 1
 0 <= x11 <= 1
 0 <= x12 <= 1
 0 <= x13 <= 1
 0 <= x14 <= 1
 0 <= x15 <= 1
 0 <= x16 <= 1
 0 <= x17 <= 1
 0 <= x18 <= 1
 0 <= x19 <= 1
 0 <= x20 <= 1
 0 <= x21 <= 1
 0 <= x22 <= 1
 0 <= x23 <= 1
 0 <= x24 <= 1
 0 <= x25 <= 1
 0 <= x26 <= 1
 0 <= x27 <= 1
 0 <= x28 <= 1
 0 <= x29 <= 1
 0 <= x30 <= 1
 0 <= x31 <= 1
 0 <= x32 <= 1
 0 <= x33 <= 1
 0 <= x34 <= 1
 0 <= x35 <= 1
 0 <= x36 <= 1
 0 <= x37 <= 1
 0 <= x38 <= 1
 0 <= x39 <= 1
 0 <= x40 <= 1
 0 <= x41 <= 1
 0 <= x42 <= 1
 0 <= x43 <= 1
 0 <= x44 <= 1
 0 <= x45 <= 1
 0 <= x46 <= 1
 0 <= x47 <= 1
 0 <= x48 <= 1
 0 <= x49 <= 1
 0 <= x50 <= 1
 0 <= x51 <= 1
 0 <= x52 <= 1
 0 <= x53 <= 1
 0 <= x54 <= 1
 0 <= x55 <= 1
 0 <= x56 <= 1
 0 <= x57 <= 1
 0 <= x58 <= 1
 0 <= x59 <= 1
 0 <= x60 <= 1
 0 <= x61 <= 1
 0 <= x62 <= 1
 0 <= x63 <= 1
 0 <= x64 <= 1
 0 <= x65 <= 1
 0 <= x66 <= 1
 0 <= x67 <= 1
 0 <= x68 <= 1
 0 <= x69 <= 1
 0 <= x70 <= 1
 0 <= x71 <= 1
 0 <= x72 <= 1
 0 <= x73 <= 1
 0 <= x74 <= 1
 0 <= x75 <= 1
 0 <= x76 <= 1
 0 <= x77 <= 1
 0 <= x78 <= 1
 0 <= x79 <= 1
 0 <= x80 <= 1
 0 <= x81 <= 1
 0 <= x82 <= 1
 0 <= x83 <= 1
 0 <= x84 <= 1
 0 <= x86 <= 1
 0 <= x87 <= 1
 0 <= x88 <= 1
 0 <= x89 <= 1
 0 <= x90 <= 1
 0 <= x91 <= 1
 0 <= x92 <= 1
 0 <= x93 <= 1
 0 <= x94 <= 1
 0 <= x95 <= 1
 0 <= x96 <= 1
 0 <= x97 <= 1
 0 <= x98 <= 1
 0 <= x99 <= 1
 0 <= x100 <= 1
 0 <= x101 <= 1
 0 <= x102 <= 1
 0 <= x103 <= 1
 0 <= x104 <= 1
 0 <= x105 <= 1
 0 <= x106 <= 1
 0 <= x107 <= 1
 0 <= x108 <= 1
 0 <= x109 <= 1
 0 <= x110 <= 1
 0 <= x111 <= 1
 0 <= x112 <= 1
 0 <= x113 <= 1
 0 <= x114 <= 1
 0 <= x115 <= 1
 0 <= x116 <= 1
 0 <= x117 <= 1
 0 <= x118 <= 1
 0 <= x119 <= 1
 0 <= x120 <= 1
 0 <= x121 <= 1
 0 <= x122 <= 1
 0 <= x123 <= 1
 0 <= x124 <= 1
 0 <= x125 <= 1
 0 <= x126 <= 1
 0 <= x127 <= 1
 0 <= x128 <= 1
 0 <= x129 <= 1
 0 <= x130 <= 1
 0 <= x131 <= 1
 0 <= x132 <= 1
 0 <= x133 <= 1
 0 <= x134 <= 1
 0 <= x135 <= 1
 0 <= x136 <= 1
 0 <= x137 <= 1
 0 <= x138 <= 1
 0 <= x139 <= 1
 0 <= x140 <= 1
 0 <= x141 <= 1
 0 <= x142 <= 1
 0 <= x143 <= 1
 0 <= x144 <= 1
 0 <= x145 <= 1
 0 <= x146 <= 1
 0 <= x147 <= 1
 0 <= x148 <= 1
 0 <= x149 <= 1
 0 <= x150 <= 1
 0 <= x151 <= 1
 0 <= x152 <= 1
 0 <= x153 <= 1
 0 <= x154 <= 1
 0 <= x155 <= 1
 0 <= x156 <= 1
 0 <= x157 <= 1
 0 <= x158 <= 1
 0 <= x159 <= 1
 0 <= x160 <= 1
 0 <= x161 <= 1
 0 <= x162 <= 1
 0 <= x163 <= 1
 0 <= x164 <= 1
 0 <= x165 <= 1
 0 <= x166 <= 1
 0 <= x167 <= 1
 0 <= x168 <= 1
 0 <= x169 <= 1
 0 <= x170 <= 1
 0 <= x171 <= 1
 0 <= x172 <= 1
 0 <= x173 <= 1
 0 <= x174 <= 1
 0 <= x175 <= 1
 0 <= x176 <= 1
 0 <= x177 <= 1
 0 <= x178 <= 1
 0 <= x179 <= 1
 0 <= x180 <= 1
 0 <= x181 <= 1
 0 <= x182 <= 1
 0 <= x183 <= 1
 0 <= x184 <= 1
 0 <= x185 <= 1
 0 <= x186 <= 1
 0 <= x187 <= 1
 0 <= x188 <= 1
 0 <= x189 <= 1
 0 <= x190 <= 1
 0 <= x191 <= 1
 0 <= x192 <= 1
 0 <= x193 <= 1
 0 <= x194 <= 1
 0 <= x195 <= 1
 0 <= x196 <= 1
 0 <= x197 <= 1
 0 <= x198 <= 1
 0 <= x199 <= 1
 0 <= x200 <= 1
 0 <= x201 <= 1
 0 <= x202 <= 1
 0 <= x203 <= 1
 0 <= x204 <= 1
 0 <= x205 <= 1
 0 <= x206 <= 1
 0 <= x207 <= 1
 0 <= x208 <= 1
 0 <= x209 <= 1
 0 <= x210 <= 1
 0 <= x211 <= 1
 0 <= x212 <= 1
 0 <= x213 <= 1
 0 <= x214 <= 1
 0 <= x215 <= 1
 0 <= x216 <= 1
 0 <= x217 <= 1
 0 <= x218 <= 1
 0 <= x219 <= 1
 0 <= x220 <= 1
 0 <= x221 <= 1
 0 <= x222 <= 1
 0 <= x223 <= 1
 0 <= x224 <= 1
 0 <= x225 <= 1
 0 <= x226 <= 1
 0 <= x227 <= 1
 0 <= x228 <= 1
 0 <= x229 <= 1
 0 <= x230 <= 1
 0 <= x231 <= 1
 0 <= x232 <= 1
 0 <= x233 <= 1
 0 <= x234 <= 1
 0 <= x235 <= 1
 0 <= x236 <= 1
 0 <= x237 <= 1
 0 <= x238 <= 1
 0 <= x239 <= 1
 0 <= x240 <= 1
 0 <= x241 <= 1
 0 <= x242 <= 1
 0 <= x243 <= 1
 0 <= x244 <= 1
 0 <= x245 <= 1
 0 <= x246 <= 1
 0 <= x247 <= 1
 0 <= x248 <= 1
 0 <= x249 <= 1
 0 <= x250 <= 1
 0 <= x251 <= 1
 0 <= x253 <= 1
 0 <= x254 <= 1
 0 <= x255 <= 1
 0 <= x256 <= 1
 0 <= x258 <= 1
 0 <= x259 <= 1
 0 <= x260 <= 1
 0 <= x261 <= 1
 0 <= x262 <= 1
 0 <= x263 <= 1
 0 <= x264 <= 1
 0 <= x265 <= 1
 0 <= x266 <= 1
 0 <= x267 <= 1
 0 <= x268 <= 1
 0 <= x269 <= 1
 0 <= x270 <= 1
 0 <= x271 <= 1
 0 <= x272 <= 1
 0 <= x275 <= 1
 0 <= x277 <= 1
 0 <= x278 <= 1
 0 <= x279 <= 1
 0 <= x281 <= 1
 0 <= x282 <= 1
 0 <= x283 <= 1
 0 <= x284 <= 1
 0 <= x285 <= 1
 0 <= x286 <= 1
 0 <= x287 <= 1
 0 <= x288 <= 1
 0 <= x289 <= 1
 0 <= x290 <= 1
 0 <= x291 <= 1
 0 <= x292 <= 1
 0 <= x293 <= 1
 0 <= x294 <= 1
 0 <= x295 <= 1
 0 <= x297 <= 1
 0 <= x298 <= 1
 0 <= x300 <= 1
 0 <= x301 <= 1
 0 <= x302 <= 1
 0 <= x303 <= 1
 0 <= x304 <= 1
 0 <= x305 <= 1
 0 <= x306 <= 1
 0 <= x308 <= 1
 0 <= x309 <= 1
 0 <= x312 <= 1
 0 <= x313 <= 1
 0 <= x320 <= 1
 0 <= x322 <= 1
 0 <= x323 <= 1
 0 <= x325 <= 1
 0 <= x327 <= 1
 0 <= x329 <= 1
 0 <= x330 <= 1
 0 <= x331 <= 1
 0 <= x332 <= 1
 0 <= x333 <= 1
 0 <= x336 <= 1
 0 <= x337 <= 1
 0 <= x338 <= 1
 0 <= x340 <= 1
 0 <= x342 <= 1
 0 <= x343 <= 1
 0 <= x344 <= 1
 0 <= x345 <= 1
 0 <= x350 <= 1
 0 <= x351 <= 1
 0 <= x352 <= 1
 0 <= x356 <= 1
 0 <= x357 <= 1
 0 <= x358 <= 1
 0 <= x359 <= 1
 0 <= x361 <= 1
 0 <= x362 <= 1
 0 <= x363 <= 1
 0 <= x364 <= 1
 0 <= x368 <= 1
 0 <= x371 <= 1
 0 <= x372 <= 1
 0 <= x375 <= 1
 0 <= x376 <= 1
 0 <= x378 <= 1
 0 <= x379 <= 1
 0 <= x380 <= 1
 0 <= x383 <= 1
 0 <= x385 <= 1
 0 <= x391 <= 1
 0 <= x392 <= 1
 0 <= x393 <= 1
 0 <= x401 <= 1
 0 <= x403 <= 1
 0 <= x404 <= 1
 0 <= x406 <= 1
 0 <= x407 <= 1
 0 <= x409 <= 1
 0 <= x410 <= 1
 0 <= x411 <= 1
 0 <= x412 <= 1
 0 <= x415 <= 1
 0 <= x417 <= 1
 0 <= x419 <= 1
 0 <= x421 <= 1
 0 <= x422 <= 1
 0 <= x432 <= 1
 0 <= x436 <= 1
 0 <= x438 <= 1
 0 <= x439 <= 1
 0 <= x444 <= 1
 0 <= x446 <= 1
 0 <= x447 <= 1
 0 <= x452 <= 1
 0 <= x454 <= 1
 0 <= x456 <= 1
 0 <= x457 <= 1
 0 <= x459 <= 1
 0 <= x460 <= 1
 0 <= x466 <= 1
 0 <= x471 <= 1
 0 <= x475 <= 1
 0 <= x478 <= 1
 0 <= x483 <= 1
 0 <= x490 <= 1
 0 <= x491 <= 1
 0 <= x497 <= 1
 0 <= x499 <= 1
 0 <= x500 <= 1
 0 <= x510 <= 1
 0 <= x526 <= 1
 0 <= x528 <= 1
 0 <= x530 <= 1
 0 <= x536 <= 1
 0 <= x552 <= 1
 0 <= x576 <= 1
 0 <= x577 <= 1
 0 <= x578 <= 1
 0 <= x580 <= 1
 0 <= x594 <= 1
 0 <= x622 <= 1
 0 <= x623 <= 1
 0 <= x628 <= 1
 0 <= x630 <= 1
 0 <= x637 <= 1
 0 <= x670 <= 1
Binaries
 x1  x2  x3  x4  x5  x6  x7  x8  x9  x10  x11  x12  x13  x14  x15  x16  x17 
 x18  x19  x20  x21  x22  x23  x24  x25  x26  x27  x28  x29  x30  x31  x32 
 x33  x34  x35  x36  x37  x38  x39  x40  x41  x42  x43  x44  x45  x46  x47 
 x48  x49  x50  x51  x52  x53  x54  x55  x56  x57  x58  x59  x60  x61  x62 
 x63  x64  x65  x66  x67  x68  x69  x70  x71  x72  x73  x74  x75  x76  x77 
 x78  x79  x80  x81  x82  x83  x84  x86  x87  x88  x89  x90  x91  x92  x93 
 x94  x95  x96  x97  x98  x99  x100  x101  x102  x103  x104  x105  x106  x107 
 x108  x109  x110  x111  x112  x113  x114  x115  x116  x117  x118  x119  x120 
 x121  x122  x123  x124  x125  x126  x127  x128  x129  x130  x131  x132  x133 
 x134  x135  x136  x137  x138  x139  x140  x141  x142  x143  x144  x145  x146 
 x147  x148  x149  x150  x151  x152  x153  x154  x155  x156  x157  x158  x159 
 x160  x161  x162  x163  x164  x165  x166  x167  x168  x169  x170  x171  x172 
 x173  x174  x175  x176  x177  x178  x179  x180  x181  x182  x183  x184  x185 
 x186  x187  x188  x189  x190  x191  x192  x193  x194  x195  x196  x197  x198 
 x199  x200  x201  x202  x203  x204  x205  x206  x207  x208  x209  x210  x211 
 x212  x213  x214  x215  x216  x217  x218  x219  x220  x221  x222  x223  x224 
 x225  x226  x227  x228  x229  x230  x231  x232  x233  x234  x235  x236  x237 
 x238  x239  x240  x241  x242  x243  x244  x245  x246  x247  x248  x249  x250 
 x251  x253  x254  x255  x256  x258  x259  x260  x261  x262  x263  x264  x265 
 x266  x267  x268  x269  x270  x271  x272  x275  x277  x278  x279  x281  x282 
 x283  x284  x285  x286  x287  x288  x289  x290  x291  x292  x293  x294  x295 
 x297  x298  x300  x301  x302  x303  x304  x305  x306  x308  x309  x312  x313 
 x320  x322  x323  x325  x327  x329  x330  x331  x332  x333  x336  x337  x338 
 x340  x342  x343  x344  x345  x350  x351  x352  x356  x357  x358  x359  x361 
 x362  x363  x364  x368  x371  x372  x375  x376  x378  x379  x380  x383  x385 
 x391  x392  x393  x401  x403  x404  x406  x407  x409  x410  x411  x412  x415 
 x417  x419  x421  x422  x432  x436  x438  x439  x444  x446  x447  x452  x454 
 x456  x457  x459  x460  x466  x471  x475  x478  x483  x490  x491  x497  x499 
 x500  x510  x526  x528  x530  x536  x552  x576  x577  x578  x580  x594  x622 
 x623  x628  x630  x637  x670 
End
